c File: flat30_3_0.col
c
c SOURCE: Joseph Culberson (joe@cs.ualberta.ca)
c DESCRIPTION: Quasi-random coloring problem
c              generated with flatness = 0
c                             probability = 0.200
c                             known coloring = 3
c                             random seed = 236824
c              Creation Date:  Fri Nov 29 22:02:14 1996
c Maximum degree = 6 Minimum degree = 2
c
c cnf created by edge2cnf
p cnf 90 300
-1 -2 0
-1 -3 0
-2 -3 0
1 2 3 0
-4 -5 0
-4 -6 0
-5 -6 0
4 5 6 0
-7 -8 0
-7 -9 0
-8 -9 0
7 8 9 0
-10 -11 0
-10 -12 0
-11 -12 0
10 11 12 0
-13 -14 0
-13 -15 0
-14 -15 0
13 14 15 0
-16 -17 0
-16 -18 0
-17 -18 0
16 17 18 0
-19 -20 0
-19 -21 0
-20 -21 0
19 20 21 0
-22 -23 0
-22 -24 0
-23 -24 0
22 23 24 0
-25 -26 0
-25 -27 0
-26 -27 0
25 26 27 0
-28 -29 0
-28 -30 0
-29 -30 0
28 29 30 0
-31 -32 0
-31 -33 0
-32 -33 0
31 32 33 0
-34 -35 0
-34 -36 0
-35 -36 0
34 35 36 0
-37 -38 0
-37 -39 0
-38 -39 0
37 38 39 0
-40 -41 0
-40 -42 0
-41 -42 0
40 41 42 0
-43 -44 0
-43 -45 0
-44 -45 0
43 44 45 0
-46 -47 0
-46 -48 0
-47 -48 0
46 47 48 0
-49 -50 0
-49 -51 0
-50 -51 0
49 50 51 0
-52 -53 0
-52 -54 0
-53 -54 0
52 53 54 0
-55 -56 0
-55 -57 0
-56 -57 0
55 56 57 0
-58 -59 0
-58 -60 0
-59 -60 0
58 59 60 0
-61 -62 0
-61 -63 0
-62 -63 0
61 62 63 0
-64 -65 0
-64 -66 0
-65 -66 0
64 65 66 0
-67 -68 0
-67 -69 0
-68 -69 0
67 68 69 0
-70 -71 0
-70 -72 0
-71 -72 0
70 71 72 0
-73 -74 0
-73 -75 0
-74 -75 0
73 74 75 0
-76 -77 0
-76 -78 0
-77 -78 0
76 77 78 0
-79 -80 0
-79 -81 0
-80 -81 0
79 80 81 0
-82 -83 0
-82 -84 0
-83 -84 0
82 83 84 0
-85 -86 0
-85 -87 0
-86 -87 0
85 86 87 0
-88 -89 0
-88 -90 0
-89 -90 0
88 89 90 0
-49 -1 0
-50 -2 0
-51 -3 0
-64 -1 0
-65 -2 0
-66 -3 0
-34 -4 0
-35 -5 0
-36 -6 0
-37 -4 0
-38 -5 0
-39 -6 0
-49 -4 0
-50 -5 0
-51 -6 0
-61 -4 0
-62 -5 0
-63 -6 0
-37 -7 0
-38 -8 0
-39 -9 0
-40 -7 0
-41 -8 0
-42 -9 0
-55 -7 0
-56 -8 0
-57 -9 0
-70 -7 0
-71 -8 0
-72 -9 0
-76 -7 0
-77 -8 0
-78 -9 0
-85 -7 0
-86 -8 0
-87 -9 0
-52 -10 0
-53 -11 0
-54 -12 0
-55 -10 0
-56 -11 0
-57 -12 0
-76 -10 0
-77 -11 0
-78 -12 0
-31 -13 0
-32 -14 0
-33 -15 0
-58 -13 0
-59 -14 0
-60 -15 0
-67 -13 0
-68 -14 0
-69 -15 0
-70 -13 0
-71 -14 0
-72 -15 0
-37 -16 0
-38 -17 0
-39 -18 0
-40 -16 0
-41 -17 0
-42 -18 0
-52 -16 0
-53 -17 0
-54 -18 0
-73 -16 0
-74 -17 0
-75 -18 0
-85 -16 0
-86 -17 0
-87 -18 0
-34 -19 0
-35 -20 0
-36 -21 0
-73 -19 0
-74 -20 0
-75 -21 0
-79 -19 0
-80 -20 0
-81 -21 0
-88 -19 0
-89 -20 0
-90 -21 0
-46 -22 0
-47 -23 0
-48 -24 0
-58 -22 0
-59 -23 0
-60 -24 0
-67 -22 0
-68 -23 0
-69 -24 0
-85 -22 0
-86 -23 0
-87 -24 0
-88 -22 0
-89 -23 0
-90 -24 0
-40 -25 0
-41 -26 0
-42 -27 0
-79 -25 0
-80 -26 0
-81 -27 0
-82 -25 0
-83 -26 0
-84 -27 0
-49 -28 0
-50 -29 0
-51 -30 0
-52 -28 0
-53 -29 0
-54 -30 0
-70 -28 0
-71 -29 0
-72 -30 0
-82 -28 0
-83 -29 0
-84 -30 0
-64 -31 0
-65 -32 0
-66 -33 0
-67 -31 0
-68 -32 0
-69 -33 0
-70 -31 0
-71 -32 0
-72 -33 0
-70 -34 0
-71 -35 0
-72 -36 0
-79 -34 0
-80 -35 0
-81 -36 0
-88 -34 0
-89 -35 0
-90 -36 0
-67 -37 0
-68 -38 0
-69 -39 0
-76 -37 0
-77 -38 0
-78 -39 0
-76 -40 0
-77 -41 0
-78 -42 0
-82 -40 0
-83 -41 0
-84 -42 0
-88 -40 0
-89 -41 0
-90 -42 0
-73 -43 0
-74 -44 0
-75 -45 0
-79 -43 0
-80 -44 0
-81 -45 0
-73 -46 0
-74 -47 0
-75 -48 0
-61 -49 0
-62 -50 0
-63 -51 0
-67 -52 0
-68 -53 0
-69 -54 0
-70 -52 0
-71 -53 0
-72 -54 0
-76 -52 0
-77 -53 0
-78 -54 0
-64 -55 0
-65 -56 0
-66 -57 0
-79 -58 0
-80 -59 0
-81 -60 0
